1 - 0
2 - 0
3 - 0
4 - 0
5 - 0
6 - 0
7 - 0
8 - 0
9 - 0
10 - 0
11 - 0
12 - 0
13 - 0
14 - 0
15 - 0
16 - 0
17 - 0
18 - 0
19 - 0
20 - 0
21 - 0
22 - 0
23 - 10
24 - 160
25 - 302
26 - 285
27 - 309
28 - 368
29 - 508
30 - 701
31 - 917
32 - 1282
33 - 1672
34 - 2171
35 - 2963
36 - 3939
37 - 4764
38 - 5742
39 - 6730
40 - 7702
41 - 8438
42 - 8600
43 - 8930
44 - 8264
45 - 7662
46 - 6689
47 - 5364
48 - 3762
49 - 1766
50 - 0

0.1 - 8574
0.2 - 8781
0.3 - 8874
0.4 - 13295
0.5 - 12239
0.6 - 12974
0.7 - 10028
0.8 - 10586
0.9 - 8553
1 - 6096
